NAME : eil101.tsp
TYPE : TOUR
DIMENSION : 101
TOUR_LENGTH : 704.0164410099142
TOUR_SECTION
1
50
76
12
80
68
77
3
33
81
9
51
30
20
66
65
71
35
34
78
79
29
24
55
25
67
23
56
39
4
54
26
40
2
73
21
72
74
75
22
41
15
43
42
57
87
97
92
59
99
96
6
94
95
13
58
53
101
28
27
69
70
31
88
7
82
18
52
89
60
83
5
93
85
98
37
100
91
44
14
38
86
16
61
84
17
45
8
46
48
47
36
49
19
62
11
64
63
90
32
10
-1
